&CONTROL
   calculation      = 'scf'
   restart_mode     = 'from_scratch'
   tstress          = .true.
   tprnfor          = .true.
   outdir           = './out'
   disk_io          = 'none'
   pseudo_dir       = '/home/mphuthi/datasets/qe/pseudopotentials/'
/
&SYSTEM
   ecutwfc          = 100
   occupations      = 'smearing'
   degauss          = 0.02
   smearing         = 'mp'
   ntyp             = 1
   nat              = 2
   ibrav            = 0
/
&ELECTRONS
   conv_thr         = 1e-06
/
&IONS
/
&CELL
/

ATOMIC_SPECIES
Li 6.94 Li.pbe-s-kjpaw_psl.1.0.0.UPF

K_POINTS automatic
30 30 30  0 0 0

CELL_PARAMETERS angstrom
1.69899592469659 0.00000000000000 0.00000000000000
0.04401928541296 1.71773245175414 0.00000000000000
0.00506470685152 0.04523406749912 1.70295458520113

ATOMIC_POSITIONS angstrom
Li 1.6651729934 0.9422979693 0.8772068869 
Li 0.9076829661 -0.0574420328 -0.0250770099 

