&CONTROL
   calculation      = 'scf'
   restart_mode     = 'from_scratch'
   tstress          = .true.
   tprnfor          = .true.
   outdir           = './out'
   disk_io          = 'none'
   pseudo_dir       = '/home/mphuthi/datasets/qe/pseudopotentials/'
/
&SYSTEM
   ecutwfc          = 100
   occupations      = 'smearing'
   degauss          = 0.02
   smearing         = 'mp'
   ntyp             = 1
   nat              = 2
   ibrav            = 0
/
&ELECTRONS
   conv_thr         = 1e-06
/
&IONS
/
&CELL
/

ATOMIC_SPECIES
Li 6.94 Li.pbe-s-kjpaw_psl.1.0.0.UPF

K_POINTS automatic
16 16 16  0 0 0

CELL_PARAMETERS angstrom
3.23442211593668 0.00000000000000 0.00000000000000
0.01321908318783 3.21913300259465 0.00000000000000
0.01003964624787 -0.07384509132895 3.31268219345389

ATOMIC_POSITIONS angstrom
Li 1.8301469739 1.6115340003 1.6373521279 
Li 3.0369169811 3.1745739863 0.0134280269 

