&CONTROL
   calculation      = 'scf'
   restart_mode     = 'from_scratch'
   tstress          = .true.
   tprnfor          = .true.
   outdir           = './out'
   disk_io          = 'none'
   pseudo_dir       = '/home/mphuthi/datasets/qe/pseudopotentials/'
/
&SYSTEM
   ecutwfc          = 100
   occupations      = 'smearing'
   degauss          = 0.02
   smearing         = 'mp'
   ntyp             = 1
   nat              = 2
   ibrav            = 0
/
&ELECTRONS
   conv_thr         = 1e-06
/
&IONS
/
&CELL
/

ATOMIC_SPECIES
Li 6.94 Li.pbe-s-kjpaw_psl.1.0.0.UPF

K_POINTS automatic
25 26 25  0 0 0

CELL_PARAMETERS angstrom
2.03974900447168 0.00000000000000 0.00000000000000
0.02155198798125 1.94403990168386 0.00000000000000
-0.04227175836867 0.05068164351411 2.00596464171062

ATOMIC_POSITIONS angstrom
Li 1.7269820511 0.4397480600 1.8091370218 
Li 1.2785320139 0.6086180642 1.1965369595 

